Version identifier: 20.1.0.0 | 2020-11-10 | 9bedb6d68
CPXPARAM_Threads                                 1
CPXPARAM_TimeLimit                               7200
CPXPARAM_MIP_Tolerances_MIPGap                   0
Generic callback                                 0x60
1 of 1 MIP starts provided solutions.
MIP start 'm1' defined initial solution with objective 703.3891.
Tried aggregator 1 time.
Reduced MIP has 1 rows, 501 columns, and 500 nonzeros.
Reduced MIP has 500 binaries, 0 generals, 0 SOSs, and 0 indicators.
Presolve time = 0.00 sec. (0.15 ticks)
Probing time = 0.00 sec. (0.05 ticks)
Tried aggregator 1 time.
Reduced MIP has 1 rows, 501 columns, and 500 nonzeros.
Reduced MIP has 500 binaries, 0 generals, 0 SOSs, and 0 indicators.
Presolve time = 0.00 sec. (0.15 ticks)
Probing time = 0.00 sec. (0.05 ticks)
MIP emphasis: balance optimality and feasibility.
MIP search method: dynamic search.
Parallel mode: none, using 1 thread.
Root relaxation solution time = 0.00 sec. (0.10 ticks)

        Nodes                                         Cuts/
   Node  Left     Objective  IInf  Best Integer    Best Bound    ItCnt     Gap

*     0+    0                          703.3891     2716.0000           286.13%
      0     0      923.9351     2      703.3891     2716.0000        0  286.13%
      0     0      880.1212     4      703.3891 UserPurge2: 1        6   25.13%
      0     0      746.8292     3      703.3891 UserPurge2: 1       25    6.18%

Repeating presolve.
Tried aggregator 1 time.
MIP Presolve eliminated 0 rows and 170 columns.
Reduced MIP has 1 rows, 331 columns, and 330 nonzeros.
Reduced MIP has 330 binaries, 0 generals, 0 SOSs, and 0 indicators.
Presolve time = 0.00 sec. (0.13 ticks)
Probing time = 0.00 sec. (0.04 ticks)
Tried aggregator 1 time.
Reduced MIP has 1 rows, 331 columns, and 330 nonzeros.
Reduced MIP has 330 binaries, 0 generals, 0 SOSs, and 0 indicators.
Presolve time = 0.00 sec. (0.10 ticks)
Represolve time = 0.00 sec. (0.73 ticks)
Probing time = 0.00 sec. (0.04 ticks)
MIP emphasis: balance optimality and feasibility.
MIP search method: dynamic search.
Parallel mode: none, using 1 thread.
Root relaxation solution time = 0.00 sec. (0.52 ticks)

        Nodes                                         Cuts/
   Node  Left     Objective  IInf  Best Integer    Best Bound    ItCnt     Gap

*     0+    0                          703.3891      746.8292             6.18%
      0     0      745.0668     4      703.3891      745.0668       48    5.93%
      0     0      741.2879     3      703.3891 UserPurge2: 1       52    5.39%
      0     0      729.8038     3      703.3891 UserPurge2: 1       62    3.76%
      0     0      727.0539     4      703.3891 UserPurge2: 1       68    3.36%
      0     0      726.4610     5      703.3891 UserPurge2: 1       74    3.28%
      0     2      726.4610     5      703.3891      726.4434       74    3.28%
Elapsed time = 7.79 sec. (10.64 ticks, tree = 0.01 MB, solutions = 1)
      1     3      708.5097     6      703.3891      726.2692     1941    3.25%
*     6     4      integral     0      703.7547      708.5088     2042    0.68%
*     7     3      integral     0      706.3184      708.5088     2054    0.31%
     10     4      708.1220     9      706.3184      708.2728     2709    0.28%
*    16     4      integral     0      707.1423      708.1208     2849    0.14%
     17     4      707.5648    10      707.1423      708.1192     3242    0.14%
     18     3        cutoff            707.1423      708.1192     3617    0.14%

User cuts applied:  976

Root node processing (before b&c):
  Real time             =    7.79 sec. (11.58 ticks)
Sequential b&c:
  Real time             =  141.63 sec. (1219.08 ticks)
                          ------------
Total (root+branch&cut) =  149.42 sec. (1230.67 ticks)
@Parameters: 
is_S_cut                                true
is_add_all_yinF                         true
is_start_value                          true
is_usercut                              true
is_visualization                        false
uc_only_rootnode                        false

data                                    Qi
fn                                      data/Qi/instance_500_500.csv
mode                                    NewSubmodular
solver                                  cplex

p                                       2
r                                       10

EPS                                     1.0e-06
EPS_vio                                 1.0e-04
beta                                    0.10
gap                                     0.00
nodelimit                               Inf
timelimit                               7200.00


@PrintInfos
ItCnt: 3671
Current gap: 0.00 %
Termination Status: OPTIMAL
Primal Status: FEASIBLE_POINT
Solve Time: 149.42 sec
Objective Value: 707.142279
Number of Nodes:     22

CutInfo: [phase] num / time (sec) 
ZLP             [phase1]     0 / 0.00 [rLC]     0 / 0.00 [rUC]     0 / 0.00 [sLC]     0 / 0.00 [sUC]     0 / 0.00 
OldSubmodular   [phase1]     0 / 0.00 [rLC]     0 / 0.00 [rUC]     0 / 0.00 [sLC]     0 / 0.00 [sUC]     0 / 0.00 
NewSubmodular   [phase1]     0 / 0.00 [rLC]    14 / 4.99 [rUC]    12 / 0.70 [sLC]     7 / 6.07 [sUC]   961 / 134.45 
PMP             [phase1]     0 / 0.00 [rLC]     4 / 3.01 [rUC]     0 / 0.00 [sLC]     6 / 5.87 [sUC]    24 / 27.91 
Separation Round: [phase1] 0  [rLC] 15  [rUC] 8  [sLC] 8  [sUC] 303
Root Best Bound 708.509066
Root Best Integer: 703.389082
Best Bound: 707.142279
Best Integer: 707.142279

